c 17_4_checker_6cl.cnf
c
c field = 17
c formula set type = 4_checker_6cl
c
p cnf 6 6
34 
36 
38 
40 
-30 
-42 
35 
37 
39 
41 
-31 
-43 
62 
92 
122 
152 
-2 
-182 
63 
93 
123 
153 
-3 
-183 
64 
96 
128 
160 
-0 
-192 
65 
97 
129 
161 
-1 
-193 
